NAME: tsp20-48
TYPE: TSP
DIMENSION: 20
EDGE_WEIGHT_TYPE: EUC_2D
NODE_COORD_SECTION
0 11 21
1 90 36
2 27 66
3 11 1
4 86 31
5 59 81
6 63 30
7 40 60
8 11 91
9 49 27
10 32 72
11 78 77
12 51 74
13 80 23
14 46 15
15 78 65
16 41 80
17 6 32
18 59 92
19 48 10
EOF